args: ../partial/bp/M10.cnf cubes/M10.cubes 100 50 50
iteration: 0
running icadical
lim: 100
refuted: 90391, progress: 90391/568214

iteration: 1
running icadical
lim: 100
refuted: 71932, progress: 162323/568214

iteration: 2
running icadical
lim: 100
refuted: 67096, progress: 229419/568214

iteration: 3
running icadical
lim: 100
refuted: 68634, progress: 298053/568214

iteration: 4
running icadical
lim: 100
refuted: 82492, progress: 380545/568214

iteration: 5
running icadical
lim: 100
refuted: 24432, progress: 404977/568214

c --- [ banner ] -------------------------------------------------------------
c 
c CaDiCaL Radically Simplified CDCL SAT Solver
c Copyright (c) 2016-2019 Armin Biere, JKU Linz
c 
c Version 1.2.1 92d72896c49b30ad2d50c8e1061ca0681cd23e60
c g++ (GCC) 4.8.5 20150623 (Red Hat 4.8.5-39) -Wall -Wextra -O3 -DNDEBUG -std=c++0x
c Thu Jan 30 22:37:32 EST 2020 Linux lov6.int.autonlab.org 3.10.0-1062.4.1.el7.x86_64 x86_64
c 
c --- [ parsing input ] ------------------------------------------------------
c 
c reading DIMACS file from '<stdin>' (use '-h' for a list of common options)
c found 'p cnf 6903 282647' header
c parsed 687624 clauses in 0.89 seconds process time
c disconnecting from '<stdin>'
c after reading 12272267 bytes 11.7 MB
c 
c --- [ options ] ------------------------------------------------------------
c 
c   --report=false                 (different from default 'true')
c 
c --- [ solving ] ------------------------------------------------------------
c 
c 
c --- [ result ] -------------------------------------------------------------
c 
s UNSATISFIABLE
c 
c --- [ run-time profiling ] -------------------------------------------------
c 
c process time taken by individual solving procedures
c (percentage relative to process time for solving)
c 
c         3.37   50.49% search
c         3.31   49.51% simplify
c         1.95   29.25% elim
c         1.67   25.04% unstable
c         1.40   20.94% stable
c         0.46    6.87% probe
c         0.37    5.59% subsume
c         0.30    4.46% walk
c         0.27    4.03% vivify
c         0.09    1.37% ternary
c         0.00    0.05% lucky
c   =================================
c         6.68   88.19% solve
c 
c last line shows process time for solving
c (percentage relative to total process time)
c 
c --- [ statistics ] ---------------------------------------------------------
c 
c chronological:              1076         4.90 %  of conflicts
c conflicts:                 21948      3287.61    per second
c decisions:                 24066      3604.87    per second
c eliminated:                  776        11.24 %  of all variables
c fixed:                      2211        32.03 %  of all variables
c learned:                   21853        99.57 %  per conflict
c minimized:                 84770        11.65 %  learned literals
c propagations:           17919661         2.68 M  per second
c reduced:                    4684        21.34 %  per conflict
c rephased:                      6      3658.00    interval
c restarts:                    710        30.91    interval
c stabilizing:                   2        45.57 %  of conflicts
c subsumed:                   6611         0.38 %  of all clauses
c strengthened:              13611         0.77 %  of all clauses
c vivified:                    392         0.02 %  of all clauses
c walked:                        1     21948.00    interval
c weakened:                   6950         2.78    average size
c 
c seconds are measured in process time for solving
c 
c --- [ resources ] ----------------------------------------------------------
c 
c total process time since initialization:         7.57    seconds
c total real time since initialization:            8.23    seconds
c maximum resident set size of process:          113.29    MB
c 
c --- [ shutting down ] ------------------------------------------------------
c 
c exit 20

real	42m18.337s
user	1897m30.758s
sys	11m41.908s
